NAME          DCAP_2_3_3_500_SS207
ROWS
 N  OBJ
 L  CON1
 L  CON2
 L  CON3
 L  CON4
 L  CON5
 L  CON6
 L  CON7
 L  CON8
 L  CON9
 L  CON10
 L  CON11
 L  CON12
 E  CON13
 E  CON14
 E  CON15
 E  CON16
 E  CON17
 E  CON18
 E  CON19
 E  CON20
 E  CON21
COLUMNS
    x[1,1]    OBJ       6.180167      CON1      1.000000    
    x[1,1]    CON7      -1.000000     CON8      -1.000000   
    x[1,1]    CON9      -1.000000   
    x[1,2]    OBJ       6.563535      CON2      1.000000    
    x[1,2]    CON8      -1.000000     CON9      -1.000000   
    x[1,3]    OBJ       7.443064      CON3      1.000000    
    x[1,3]    CON9      -1.000000   
    x[2,1]    OBJ       6.732585      CON4      1.000000    
    x[2,1]    CON10     -1.000000     CON11     -1.000000   
    x[2,1]    CON12     -1.000000   
    x[2,2]    OBJ       5.039546      CON5      1.000000    
    x[2,2]    CON11     -1.000000     CON12     -1.000000   
    x[2,3]    OBJ       6.054841      CON6      1.000000    
    x[2,3]    CON12     -1.000000   
    MARKER    'MARKER'                'INTORG'
    u[1,1]    OBJ       48.076654     CON1      -1.000000   
    u[1,2]    OBJ       20.066487     CON2      -1.000000   
    u[1,3]    OBJ       32.230043     CON3      -1.000000   
    u[2,1]    OBJ       49.996186     CON4      -1.000000   
    u[2,2]    OBJ       49.466655     CON5      -1.000000   
    u[2,3]    OBJ       27.484319     CON6      -1.000000   
    y[1,1,1]  OBJ       5.565588      CON7      1.202309    
    y[1,1,1]  CON13     1.000000    
    y[1,1,2]  OBJ       9.524144      CON8      0.693055    
    y[1,1,2]  CON14     1.000000    
    y[1,1,3]  OBJ       7.497951      CON9      0.790285    
    y[1,1,3]  CON15     1.000000    
    y[1,2,1]  OBJ       8.102586      CON7      1.102859    
    y[1,2,1]  CON16     1.000000    
    y[1,2,2]  OBJ       9.080997      CON8      1.294684    
    y[1,2,2]  CON17     1.000000    
    y[1,2,3]  OBJ       7.379858      CON9      1.278395    
    y[1,2,3]  CON18     1.000000    
    y[1,3,1]  OBJ       8.040116      CON7      1.320707    
    y[1,3,1]  CON19     1.000000    
    y[1,3,2]  OBJ       5.458715      CON8      0.998995    
    y[1,3,2]  CON20     1.000000    
    y[1,3,3]  OBJ       8.104291      CON9      0.803165    
    y[1,3,3]  CON21     1.000000    
    y[2,1,1]  OBJ       5.016084      CON10     1.202309    
    y[2,1,1]  CON13     1.000000    
    y[2,1,2]  OBJ       8.601443      CON11     0.693055    
    y[2,1,2]  CON14     1.000000    
    y[2,1,3]  OBJ       8.793247      CON12     0.790285    
    y[2,1,3]  CON15     1.000000    
    y[2,2,1]  OBJ       5.603243      CON10     1.102859    
    y[2,2,1]  CON16     1.000000    
    y[2,2,2]  OBJ       9.177581      CON11     1.294684    
    y[2,2,2]  CON17     1.000000    
    y[2,2,3]  OBJ       9.813791      CON12     1.278395    
    y[2,2,3]  CON18     1.000000    
    y[2,3,1]  OBJ       5.685088      CON10     1.320707    
    y[2,3,1]  CON19     1.000000    
    y[2,3,2]  OBJ       8.261352      CON11     0.998995    
    y[2,3,2]  CON20     1.000000    
    y[2,3,3]  OBJ       6.848436      CON12     0.803165    
    y[2,3,3]  CON21     1.000000    
    z[1,1]    OBJ       718.441112    CON13     1.000000    
    z[1,2]    OBJ       552.778381    CON14     1.000000    
    z[1,3]    OBJ       782.814270    CON15     1.000000    
    z[2,1]    OBJ       819.295552    CON16     1.000000    
    z[2,2]    OBJ       884.578318    CON17     1.000000    
    z[2,3]    OBJ       525.474983    CON18     1.000000    
    z[3,1]    OBJ       916.349063    CON19     1.000000    
    z[3,2]    OBJ       775.007713    CON20     1.000000    
    z[3,3]    OBJ       762.967425    CON21     1.000000    
    MARKER    'MARKER'                 'INTEND'
RHS
    RHS       CON1      -0.000000     CON2      -0.000000   
    RHS       CON3      -0.000000     CON4      -0.000000   
    RHS       CON5      -0.000000     CON6      -0.000000   
    RHS       CON7      -0.000000     CON8      -0.000000   
    RHS       CON9      -0.000000     CON10     -0.000000   
    RHS       CON11     -0.000000     CON12     -0.000000   
    RHS       CON13     1.000000      CON14     1.000000    
    RHS       CON15     1.000000      CON16     1.000000    
    RHS       CON17     1.000000      CON18     1.000000    
    RHS       CON19     1.000000      CON20     1.000000    
    RHS       CON21     1.000000    
BOUNDS
 BV BOUND     u[1,1]  
 BV BOUND     u[1,2]  
 BV BOUND     u[1,3]  
 BV BOUND     u[2,1]  
 BV BOUND     u[2,2]  
 BV BOUND     u[2,3]  
 BV BOUND     y[1,1,1]
 BV BOUND     y[1,1,2]
 BV BOUND     y[1,1,3]
 BV BOUND     y[1,2,1]
 BV BOUND     y[1,2,2]
 BV BOUND     y[1,2,3]
 BV BOUND     y[1,3,1]
 BV BOUND     y[1,3,2]
 BV BOUND     y[1,3,3]
 BV BOUND     y[2,1,1]
 BV BOUND     y[2,1,2]
 BV BOUND     y[2,1,3]
 BV BOUND     y[2,2,1]
 BV BOUND     y[2,2,2]
 BV BOUND     y[2,2,3]
 BV BOUND     y[2,3,1]
 BV BOUND     y[2,3,2]
 BV BOUND     y[2,3,3]
 BV BOUND     z[1,1]  
 BV BOUND     z[1,2]  
 BV BOUND     z[1,3]  
 BV BOUND     z[2,1]  
 BV BOUND     z[2,2]  
 BV BOUND     z[2,3]  
 BV BOUND     z[3,1]  
 BV BOUND     z[3,2]  
 BV BOUND     z[3,3]  
ENDATA
